NAME: rue_25_1
TYPE: TSP
DIMENSION: 25
EDGE_WEIGHT_TYPE: EUC_2D
NODE_COORD_SECTION
1 10 14
2 16 26
3 65 14
4 29 93
5 90 87
6 94 31
7 30 31
8 9 90
9 74 13
10 1 66
11 41 32
12 37 58
13 17 37
14 12 28
15 55 19
16 89 94
17 63 78
18 34 23
19 73 24
20 79 95
21 50 12
22 52 29
23 55 75
24 78 89
25 70 10
